20 63 
1 5 1
1 6 1
1 9 1
1 10 1
1 11 1
1 13 1
1 14 1
1 19 1
1 20 1
2 5 1
2 7 1
2 8 1
2 9 1
2 10 1
2 11 1
2 16 1
2 20 1
3 5 1
3 6 1
3 9 1
3 13 1
3 15 1
4 5 1
4 6 1
4 7 1
4 8 1
4 12 1
4 13 1
5 6 1
5 7 1
5 9 1
5 10 1
5 12 1
5 15 1
5 16 1
5 17 1
5 18 1
6 7 1
6 8 1
6 10 1
6 11 1
6 12 1
6 13 1
6 14 1
6 15 1
6 17 1
6 20 1
7 8 1
7 14 1
7 15 1
7 19 1
8 11 1
8 17 1
11 12 1
11 14 1
11 16 1
12 18 1
12 19 1
12 20 1
13 18 1
15 18 1
16 17 1
18 19 1
